p cnf 44 125
a 24 12 0
e 1 2 3 4 5 6 7 8 9 10 11 13 14 15 16 17 18 19 20 21 22 23 25 26 27 28 29 30 31 32 33 34 35 36 37 38 39 40 41 42 43 44 0
3 1 0
3 2 0
-1 -2 -3 0
-4 -3 0
-4 2 0
3 -2 4 0
7 -8 -9 0
-7 8 -9 0
7 8 9 0
-7 -8 9 0
-6 9 -10 0
6 -9 -10 0
-6 -9 10 0
6 9 10 0
-5 10 -11 0
5 -10 -11 0
-5 -10 11 0
5 10 11 0
7 13 -14 0
-7 -13 -14 0
7 -13 14 0
-7 13 14 0
-12 14 -15 0
12 -14 -15 0
-12 -14 15 0
12 14 15 0
-16 -7 0
-16 5 0
7 -5 16 0
17 -5 0
17 8 0
5 -8 -17 0
-17 -18 0
17 -18 0
-16 -18 -19 0
16 18 -19 0
-16 18 19 0
16 -18 19 0
20 -15 0
20 -19 0
15 19 -20 0
21 -14 0
21 9 0
14 -9 -21 0
-22 9 0
-22 -21 0
-9 21 22 0
-24 13 0
-24 -23 0
-13 23 24 0
-25 22 0
-25 -24 0
-22 24 25 0
12 -26 -27 0
-12 26 -27 0
12 26 27 0
-12 -26 27 0
-25 27 -28 0
25 -27 -28 0
-25 -27 28 0
25 27 28 0
29 20 0
29 28 0
-20 -28 -29 0
30 -11 0
30 29 0
11 -29 -30 0
-31 -7 0
-31 12 0
7 -12 31 0
-31 16 -32 0
31 -16 -32 0
-31 -16 32 0
31 16 32 0
33 8 0
33 2 0
-8 -2 -33 0
33 16 -34 0
-33 -16 -34 0
33 -16 34 0
-33 16 34 0
14 -10 -35 0
-14 10 -35 0
14 10 35 0
-14 -10 35 0
36 -18 0
36 -35 0
18 35 -36 0
-37 -34 0
-37 36 0
34 -36 37 0
38 -32 0
38 37 0
32 -37 -38 0
39 14 0
39 -35 0
-14 35 -39 0
-40 -38 0
-40 39 0
38 -39 40 0
41 5 0
41 -2 0
-5 2 -41 0
40 41 -42 0
-40 -41 -42 0
40 -41 42 0
-40 41 42 0
43 30 0
43 -42 0
-30 42 -43 0
-44 4 0
-44 43 0
-4 -43 44 0
-30 -16 -41 -43 0
-13 23 -9 -18 -21 -12 0
21 -37 -13 38 -14 28 -42 0
33 -24 31 -20 -25 -43 1 3 0
3 -19 27 -21 34 0
-24 31 -32 -2 41 36 0
-33 -3 -32 22 -9 -2 41 0
-22 8 -16 28 44 0
-8 40 9 6 -36 42 -31 0
-28 2 -27 -17 0
-25 4 41 -14 -11 -6 -18 9 0
44 0
